!MP3 OPT
* xyz 0 1
O 0 0 0
H 1 0 0
H 0 1 0
